!rhf sto-3g 


*xyz 0 1
C   -0.002101646491    0.099952991948   -0.019140714606
O   -1.132464137687   -0.249618499827   -0.028573275021
O    1.115881125532    0.482887818044   -0.016938030115
H    0.506206930865   -2.526923746544    0.514869639580
H   -0.217998549235   -2.365352764484    0.435333009367
*


