
molecule {
0 1
 C   -0.013640455524   -0.304855975907   -0.810379818598
 O   -1.076658993565   -0.439893960784   -1.481825450171
 F    1.062864289563   -0.023598561706    1.294372531015
 F   -1.097616516737    0.080821320964    1.276570700398
 F   -0.104165444803   -1.814358371024    0.969731468779
 H    0.968312521123   -0.646571602118   -1.195237418418
 C   -0.051533518422   -0.505930890741    0.712794309826
--
0 1
 H    0.992026311039    2.914407371958   -1.825047800286
 C    1.211964312257    1.872706905514   -1.617459730801
 H    1.398768059056    1.323234574780   -2.542582410924
 H    2.063852546695    1.797892286290   -0.943598543110
 O    0.085591558919    1.317072805176   -0.932426337620
 H   -0.729913783851    1.169050389932   -1.501740898641
symmetry c1
no_reorient
no_com
}

set{
  basis 6-311++G(d,p)
  freeze_core True
}

set_num_threads(32)
energy('fisapt0')
