molecule{
0 1
    C            0.114283081192     0.298323411498    -1.564720926966
    O           -0.933681714310     0.226443626216    -2.322251970436
    BR           1.580252119363     0.458193703415     0.882876240334
    BR          -1.600513027011     0.641580279657     0.721348752976
    H            1.102963053972     3.543527418724    -2.364951299416
    C            1.328503584354     2.488956786040    -2.221025454663
    H            1.512594980897     2.004222447527    -3.183073665180
    H            2.188708050801     2.377883092360    -1.563589714819
    O            0.196626601110     1.892005232910    -1.574124173045
    H           -0.682114071540     1.574898707014    -2.216542845479
    C           -0.017197409137    -0.116679636361    -0.076066820895
    BR          -0.113721455507    -2.055962672289    -0.083413764549
    H            1.092768890340    -0.045313121271    -1.939602914483
 
}

basis {
  assign 6-311ppgss
  assign Br def2-tzvpp
}

set{
   freeze_core True
   normal_modes_write True
}


set_num_threads(16)
frequencies('m06-2x')
