
molecule {
0 1
C -0.0629433443 -0.7572010666 0.0801593910

O -1.0888461738 -0.7865965296 -0.6641124020

H 0.7179356210 -0.7116726551 2.1110504297

H -1.0489257789 -0.4642333971 1.9505767764

H -0.3494029664 -2.0702085926 1.6926353763

H 0.9207750752 -1.0501608516 -0.3399096330

C -0.1816294332 -0.9978337405 1.5638103934
--
0 1
H 1.0283619976 2.4618767163 -1.1042903334

C 1.2073827499 1.4252054256 -0.8320118287

H 1.3251365420 0.8162068857 -1.7326963138

H 2.1048908840 1.3620664280 -0.2173464493

O 0.1138142324 0.9632942459 -0.0547013537

H -0.6883202983 0.7790264219 -0.6197681977 
symmetry c1
no_reorient
no_com
}

set{
  basis 6-311++G(d,p)
  freeze_core True
}

set_num_threads(32)
energy('fisapt0')
