!rhf sto-3g 


*xyz 0 1
C    0.193729379050   -0.229205007684    0.056780702928
O   -1.168040234738   -0.253464980226   -0.030300370539
O    1.073906773458    0.585278044604   -0.039288308255
H    0.480214170685   -1.304904205766    0.280942239838
H   -1.292950356545   -1.232105156788    0.147402489587
*


