molecule{
0 1
C        0.2464365831     -0.3265574870      0.0788370087                 
O       -1.1274241958     -0.2127079123     -0.0353484447                 
O        1.0051235028      0.6124623395     -0.0490768669                 
H        0.5678516019     -1.3587599931      0.2972226055                 
H       -1.6827707814     -0.0358126186     -0.7297503032   
}

set{
   basis 3-21G
   freeze_core True
   opt_type ts
}


set_num_threads(1)
optimize('b3lyp')
