!rhf sto-3g 


*xyz 0 1
C    0.029069777995    0.010788943258   -0.000016256628
O   -1.127677677201   -0.239742268804   -0.030154107424
O    1.099927291999    0.508548150937   -0.022917651901
H    0.414741506056   -2.253263997302    0.456727702729
H   -0.320451621399   -2.141342518830    0.385753195877
*


