molecule{
0 1
    C            0.129784220059    -0.143510255477     0.036169310292
    O           -1.154576783693    -0.249347483617    -0.030169152237
    O            1.080794459278     0.552841892869    -0.032650887544
    H            0.341375655214    -1.653518907106     0.337786902363
    H           -0.715715098318    -1.454405581870     0.228550935085 
}

set{
   basis 3-21G
   freeze_core True
   reference uhf
   full_hess_every 0
   normal_modes_write True
}


set_num_threads(1)
frequencies('b3lyp')
