!rhf sto-3g 


*xyz 0 1
C    0.156338358604   -0.177753759010    0.044482534101
O   -1.160898183062   -0.257803454283   -0.028989958330
O    1.080762635726    0.565209057105   -0.035010940177
H    0.414447148712   -1.464271710922    0.306752697367
H   -1.004131912135   -1.297994728191    0.179342093289
*


