molecule{
0 1
C 0.0250915777 -0.1286928485 -1.6797941193

O -1.0640518750 -0.2708458835 -2.3671461743

I 1.7676392233 0.4239698866 0.7744794270

I -1.7497022864 0.6065931404 0.7568108668

H 0.9771788562 2.9101588202 -1.8188499572

C 1.2104296737 1.8677450067 -1.6144971799

H 1.4009212770 1.3273640421 -2.5445434213

H 2.0684812003 1.8026701985 -0.9482891645

O 0.0824054410 1.2986775512 -0.9347840067

H -0.8158248671 0.9466707559 -1.5217095565

C -0.0315099183 -0.3544175389 -0.1654415176

I -0.1203043283 -2.4863907733 0.2505893474

H 0.9845976699 -0.5102986296 -2.0702818945  
}

basis {
  assign 6-311ppgss
  assign I def2-tzvpp
}

set{
   freeze_core True
   opt_type ts
}


set_num_threads(32)
optimize('m06-2x')
