!rhf sto-3g 


*xyz 0 1
C   -0.006432324098    0.112893193496   -0.021903884692
O   -1.133083059452   -0.248844160176   -0.028758842982
O    1.117080222511    0.479645157422   -0.016236413127
H    0.524233849008   -2.595789998044    0.529164346323
H   -0.193668632716   -2.411389230925    0.445748822920
*


