!rhf sto-3g 


*xyz 0 1
C    0.035803786745   -0.007218100988    0.003874355419
O   -1.126816577151   -0.237640366608   -0.030500622902
O    1.096348475813    0.513602367268   -0.024124397847
H    0.396629417409   -2.201697268348    0.445710016604
H   -0.339388094032   -2.092075250940    0.375097416855
*


