molecule{
0 1
C     -0.438042   -0.749370    0.240485
O     -1.507633   -0.532039   -0.482282
O     -0.147300    0.882268    0.456711
H     -1.083671    0.700208   -0.228661
H      0.887008    2.545001   -0.158340
C      1.033221    1.465294   -0.115158
H      1.214003    1.075283   -1.122448
H      1.884810    1.243748    0.528996
F     -0.056127   -0.381635    2.051663
H     -0.125066   -1.698868   -0.140827 
}

set{
   basis 6-311++G(d,p)
   freeze_core True
   opt_type ts
}


set_num_threads(16)
optimize('m06-2x')
