molecule{
0 1
  Si    1.66643900    1.31319600    0.00668800 
   F   -1.17922200   -0.10495100   -0.00196400 
   H    1.00074300    2.03751600   -1.08158600 
   H    1.33992400    1.57034100    1.41243900 
   H    3.12017000    1.30553300   -0.24009800 
   H    0.79805500   -0.86176300    0.03466400 
   C    1.98403200   -0.96875300    0.00369100 
   N    3.00079100   -1.58020600   -0.01958600 
}

set{
   basis 6-31G(d)
   freeze_core True
   opt_type ts
}


set_num_threads(32)
optimize('m06-2x')
