!rhf sto-3g 


*xyz 0 1
C    0.113046477165   -0.128629211570    0.032240480427
O   -1.148230929563   -0.244727278116   -0.030621258673
O    1.082411406953    0.548785303174   -0.031783059240
H    0.290199182653   -1.726605640842    0.348261696826
H   -0.591620631683   -1.567449880415    0.258258237034
*


