!rhf sto-3g 


*xyz 0 1
C    0.214823960862   -0.261733044113    0.064382785623
O   -1.165764959261   -0.244282144046   -0.031899030419
O    1.061628630929    0.598451868529   -0.042618699328
H    0.517080965534   -1.308502347650    0.284177840325
H   -1.422233964163   -1.196017677411    0.131877808340
*


