molecule{
0 1
    C           -0.185114839068    -1.002440288444     0.212164275656
    O           -1.195906128921    -0.785329963826    -0.581486258520
    H           -0.372430959452    -1.387591664993     1.222064929873
    H            0.765146042402    -1.361098193307    -0.215437356320
    H            1.190086881801     2.220329143677    -0.097656414572
    C            1.281909007356     1.135439298381    -0.095807387788
    H            1.403809863138     0.768530080675    -1.119129706079
    H            2.137905808347     0.844794785632     0.511433014177
    O            0.099703943024     0.588170584466     0.488577911428
    H           -0.786333714816     0.460501847375    -0.212193106817
 
}

set{
   basis 6-311++G(d,p)
   freeze_core True
   normal_modes_write True
}


set_num_threads(32)
frequencies('m06-2x')
