!rhf sto-3g 


*xyz 0 1
C    0.015888628151    0.047682121470   -0.007947233943
O   -1.130069019358   -0.244666558250   -0.029368424371
O    1.107516410255    0.498090280407   -0.020407982945
H    0.450773542648   -2.356206131165    0.478710698369
H   -0.282030443574   -2.233555096136    0.405903360664
*


