!rhf sto-3g 


*xyz 0 1
C    0.164911351469   -0.188630399691    0.047127550047
O   -1.163006295977   -0.258161451071   -0.029064512557
O    1.079935461488    0.569011366145   -0.035789522717
H    0.429608789171   -1.410656653637    0.297586785026
H   -1.074785572764   -1.276767223159    0.170554153497
*


