!rhf sto-3g 


*xyz 0 1
C    0.240347330978   -0.309833579683    0.075245940092
O   -1.142984134656   -0.222582234980   -0.034507992494
O    1.024385373297    0.610701864578   -0.047449534653
H    0.557008991584   -1.344416433535    0.293764727853
H   -1.536535078357   -1.126188385929    0.111020185260
*


