!rhf sto-3g 


*xyz 0 1
C    0.103994531457   -0.119613332506    0.029911311328
O   -1.144909413427   -0.242070454147   -0.030901136067
O    1.083212369263    0.546243570285   -0.031243744892
H    0.282044788796   -1.773916522424    0.356696587629
H   -0.541112995584   -1.629316105237    0.273438910924
*


