!rhf sto-3g 


*xyz 0 1
C    0.134698715505   -0.151025363114    0.037941882147
O   -1.155678141712   -0.252214795328   -0.029699630186
O    1.081320831201    0.555607655622   -0.033146926538
H    0.363380814931   -1.613747456079    0.331719215176
H   -0.787110866776   -1.403084278070    0.213933755993
*


