molecule{
0 1
    C            0.113595072843    -0.153880407652     0.037596022684
    O           -1.135961394234    -0.223379947195    -0.034588131338
    O            1.064242147389     0.524605985828    -0.028439251841
    H            0.404693854873    -1.556634791353     0.327550495378
    H           -0.619014433727    -1.391813384411     0.225090412236 
}

set{
   basis 3-21G
   freeze_core True
   reference uhf
   full_hess_every 0
   normal_modes_write True
}


set_num_threads(1)
frequencies('b3lyp')
