!rhf sto-3g 


*xyz 0 1
C    0.183531978104   -0.214430376116    0.053286100895
O   -1.166869663274   -0.256072121203   -0.029724174372
O    1.076935337503    0.578980417634   -0.037887142959
H    0.461510514742   -1.324485520274    0.283381126761
H   -1.219471322290   -1.247117719863    0.155191069031
*


