!rhf sto-3g 


*xyz 0 1
C    0.084839773737   -0.098248109952    0.024545993561
O   -1.137578280974   -0.237548747916   -0.031263271113
O    1.084943929922    0.540086739445   -0.029951305637
H    0.291067322713   -1.878410657042    0.377157558291
H   -0.465894627152   -1.753263401232    0.302097256841
*


