!rhf sto-3g 


*xyz 0 1
C    0.233549944897   -0.294895112838    0.071947362687
O   -1.153443247057   -0.230489912757   -0.033701829060
O    1.038922924424    0.608095881801   -0.045977802770
H    0.546008075618   -1.331851271102    0.290621561225
H   -1.509326633058   -1.149763891321    0.117287096255
*


