!rhf sto-3g 


*xyz 0 1
C    0.057810531669   -0.057269002819    0.014907800910
O   -1.128555897651   -0.234689620852   -0.031190947897
O    1.088707990363    0.527990196477   -0.027387506350
H    0.341682761252   -2.042525548145    0.411760219327
H   -0.397607652368   -1.930475224557    0.340417727430
*


