!rhf sto-3g 


*xyz 0 1
C    0.066244344635   -0.072062021493    0.018298196189
O   -1.130910785002   -0.235027046697   -0.031288546274
O    1.087178845939    0.532360558536   -0.028325220802
H    0.323572417921   -1.988076942868    0.400191414806
H   -0.418274872330   -1.872791515107    0.328048842097
*


