!rhf sto-3g 


*xyz 0 1
C    0.022436033043    0.029157182199   -0.003969480643
O   -1.128853093497   -0.242157766140   -0.029768852176
O    1.103745387570    0.503376907259   -0.021672317724
H    0.432754114066   -2.304534469333    0.467681362375
H   -0.301418602558   -2.188372435633    0.395991259839
*


