molecule{
0 1
C        0.0397475615     -0.5601155969     -1.1716793934                 
O       -0.9007364085     -0.5770974240     -1.8962151241                 
Cl       1.4040755200      0.2542511469      1.0306578900                 
Cl      -1.4963312232      0.4927952548      0.8341950153                 
C       -0.0823526802     -0.4440125209      0.3697303229                 
Cl      -0.2414910959     -2.1337839583      0.9346910667                 
H        1.0835094677     -0.7057737514     -1.4996380518     
}

set{
   basis 6-311++G(d,p)
   freeze_core True
   cubeprop_tasks ['ESP']
}


set_num_threads(32)
e, wfn = energy('m06-2x', return_wfn=True)
cubeprop(wfn)
