!UKS B3LYP SV(P) TightSCF KDIIS SOSCF OPT

*xyz 0 1
  C      -0.067565      0.297307     -0.061055
  O      -1.215925      0.116462     -0.103963
  O       1.083644      0.454964     -0.013826
  H       0.328279     -1.972712      0.397688
  H      -0.424748     -1.889982      0.331084
*
