!rhf sto-3g 


*xyz 0 1
C    0.003390651307    0.083800041084   -0.015685839788
O   -1.131888226427   -0.248807929424   -0.028693120123
O    1.113800955096    0.487535809633   -0.017967094185
H    0.487435187636   -2.465518340418    0.501942623488
H   -0.240748970243   -2.321059091934    0.425357445175
*


