!rhf sto-3g 


*xyz 0 1
C    0.122563255255   -0.136906848450    0.034455989470
O   -1.152014522704   -0.247079402717   -0.030430199017
O    1.081330804281    0.550933622490   -0.032264187040
H    0.308605828425   -1.685764391733    0.341734867750
H   -0.646143606370   -1.506496187526    0.243008971426
*


