molecule{
0 1
    C            0.230223016669    -0.361073813614     0.034916906978
    O           -1.152258456006    -0.154071239465     0.075175394608
    O            1.048229023912     0.530856179754    -0.061057027549
    H            0.493185194724    -1.419201899633     0.174977883284
    H           -1.583388633620    -0.261404487986    -0.814796243518 
}

set{
   basis 3-21G
   freeze_core True
   reference uhf
   full_hess_every 0
   normal_modes_write True
}


set_num_threads(1)
frequencies('b3lyp')
