molecule{
0 1
C -0.4380424513 -0.7493696234 0.2404853738
O -1.5076328731 -0.5320390319 -0.4822817985
H -0.5513805388 -1.1140625746 1.2700688296
H 0.4797461247  -1.1141376056 -0.2501359619
H 0.887007579   2.5450011635  -0.1583395683
C 1.0332212228  1.4652938919  -0.1151580244
H 1.2140026283  1.0752833278  -1.1224483803
H 1.884809949   1.2437477831  0.5289964708
O -0.1473001226 0.8822680634  0.4567112565
H -1.0836705182 0.7002076057  -0.2286611973 
}

set{
   basis 6-311++G(d,p)
   freeze_core True
   opt_type ts
}


set_num_threads(32)
optimize('m06-2x')
