!rhf sto-3g 


*xyz 0 1
C    0.050008648899   -0.041430031399    0.011360108228
O   -1.127091077165   -0.235023336402   -0.031025245363
O    1.090690817387    0.523361358475   -0.026369798797
H    0.360024261915   -2.096367469026    0.423228593574
H   -0.377770139368   -1.986465896805    0.352409545295
*


