molecule{
0 1
C       -0.2199932644     -1.1872715186      0.1094348180                 
O       -1.0271672008     -0.9425249395     -0.7495534682                 
H        0.1564614487     -0.5116969893      2.0797023623                 
H       -1.5577358025     -0.9287351352      1.7592148759                 
C       -0.5205500375     -1.2068567218      1.5775470659                 
H       -0.3270794502     -2.2074751784      1.9740911647                 
H        0.8283432408     -1.4193569154     -0.1650229424               
}

set{
   basis 6-311++G(d,p)
   freeze_core True
   cubeprop_tasks ['ESP']
}


set_num_threads(32)
e, wfn = energy('m06-2x', return_wfn=True)
cubeprop(wfn)
