!B3LYP SV(P) OptTS NumFreq

*xyz 0 1
C      0.162167     0.405264    -0.066274
O     -1.090890     0.357340    -0.141363
O      1.117341     1.076332    -0.129785
H      0.424780    -0.999507     0.219049
H     -0.613397    -0.839429     0.118374
*
