!rhf sto-3g 


*xyz 0 1
C    0.224843813611   -0.278637658180    0.068270386645
O   -1.161102253923   -0.237877348806   -0.032807248422
O    1.051585247340    0.603983896210   -0.044345354404
H    0.532656992489   -1.319154952254    0.287283635163
H   -1.471719392736   -1.173530771255    0.124300361996
*


