molecule{
0 1
C 0.0243272819 -0.1669752439 -1.4576325328

O -1.0648161708 -0.3091282789 -2.1449845878

Br 1.5914289211 0.3097821857 0.9049835893

Br -1.5829151645 0.4745967321 0.8890379982

H 0.9771788562 2.9101588202 -1.8188499572

C 1.2104296737 1.8677450067 -1.6144971799

H 1.4009212770 1.3273640421 -2.5445434213

H 2.0684812003 1.8026701985 -0.9482891645

O 0.0824054410 1.2986775512 -0.9347840067

H -0.8158248671 0.9466707559 -1.5217095565

C -0.0322742141 -0.3926999343 0.0567200689

Br -0.1124097396 -2.3167714549 0.4321812267

H 0.9838333741 -0.5485810250 -1.8481203080 
}

basis {
  assign 6-311ppgss
  assign Br def2-tzvpp
}

set{
   freeze_core True
   opt_type ts
}


set_num_threads(32)
optimize('m06-2x')
