molecule{
0 1
C       -0.6101067389     -1.0420929117     -0.5574034208                 
O       -1.7819647030     -0.9615987922     -0.7542289137                 
F        1.3341825623     -0.2209294838      0.5363095501                 
F       -0.5431620537      0.7377519586      1.0301125198                 
C        0.0230537792     -0.4171594251      0.7001078690                 
F       -0.1292876837     -1.2633457816      1.7287523978                 
H        0.0957677128     -1.6019739962     -1.1901173596      
}

set{
   basis 6-311++G(d,p)
   freeze_core True
   cubeprop_tasks ['ESP']
}


set_num_threads(32)
e, wfn = energy('m06-2x', return_wfn=True)
cubeprop(wfn)
