!B3LYP SV(P) NEB-CI

%neb
  NEB_End_XYZFile "prod.xyz"
  Nimages 20
end

*xyz 0 1
  C   -0.09747096069022      0.60995763828155     -0.12271704977891
  O   -1.25576587315890      0.52022877033435     -0.18341361402541
  O   1.06066200131021      0.70037902104859     -0.06203040435826
  H   0.37914428587726     -2.42376368504301      0.48701267968197
  H   -0.38288445333835     -2.40076274462148      0.43107638848060
*
