molecule{
0 1
C     -0.108048   -0.645236    0.050654
O     -1.120282   -0.619961   -0.731157
O      0.225504    0.911684   -0.083940
H     -0.718435    0.657922   -0.701050
H      1.355440    2.315564   -1.044552
C      1.408542    1.254452   -0.810960
H      1.473575    0.670673   -1.733349
H      2.273373    1.062369   -0.177825
Cl    -0.343774   -0.817235    1.371281
H      0.812505   -1.184592   -0.204078 
}

set{
   basis 6-311++G(d,p)
   freeze_core True
   opt_type ts
}


set_num_threads(16)
optimize('m06-2x')
