molecule{
0 1
    C           -0.064334101430    -0.457791213697    -0.356670048778
    O           -1.107129262530    -0.418350932437    -1.096448944097
    O            0.286593796915     1.078860683052    -0.494633598756
    H           -0.658542998030     0.858251152049    -1.109211539717
    H            1.484332970116     2.472826155599    -1.382887064918
    C            1.508237731565     1.407488678664    -1.165477269037
    H            1.602975870829     0.832988450692    -2.090359030448
    H            2.334711078196     1.187474028879    -0.491665036383
    CL          -0.281533372877    -0.753183103608     1.415153812771
    H            0.835163730647    -1.008739988353    -0.652375260349 
}

set{
   basis 6-311++G(d,p)
   freeze_core True
   normal_modes_write True
}


set_num_threads(16)
frequencies('m06-2x')
