!UKS B3LYP SV(P) TightSCF KDIIS SOSCF Freq IRC

%irc
  MaxIter 10000000
  Scale_Init_Displ 0.01
  Scale_Displ_SD 0.01
end

*xyz 0 1
  C   0.16261692506246      0.40572217236705     -0.06657686988189
  O   -1.09072764609582      0.35750439052078     -0.13914219748602
  O   1.11774208591799      1.07647289171753     -0.13274831888595
  H   0.42430461462704     -1.00025185402871      0.21888732511452
  H   -0.61393497951167     -0.83944760057666      0.11958106113934
*
