!rhf sto-3g 


*xyz 0 1
C    0.129784282576   -0.143510260831    0.036169063544
O   -1.154576717424   -0.249347260831   -0.030168936456
O    1.080794282576    0.552841739169   -0.032650936456
H    0.341376282576   -1.653519260831    0.337787063544
H   -0.715714717424   -1.454406260831    0.228551063544
*


