!rhf sto-3g 


*xyz 0 1
C    0.094558019047   -0.109553122861    0.027356872936
O   -1.141330151276   -0.239618568774   -0.031124477052
O    1.084035904248    0.543364019762   -0.030638339629
H    0.281813376755   -1.824697950286    0.366327208056
H   -0.498398232478   -1.691532513867    0.288159913463
*


