!rhf sto-3g 


*xyz 0 1
C    0.075300088647   -0.085732944193    0.021516147418
O   -1.133998832875   -0.235997069323   -0.031314838411
O    1.085964867946    0.536407933303   -0.029179973918
H    0.306197117216   -1.933236543520    0.388597288082
H   -0.440448491791   -1.813694391585    0.315310202346
*


