molecule{
0 2 
C       0.373812       0.871847      -0.307479
H       0.058654       0.507392      -1.281982
H      -0.053210       1.817223       0.008737
C       1.550712       0.463313       0.247140
H       1.937838       0.940572       1.144717
C      -1.447991      -0.347048       0.523039
H      -1.013980      -1.341161       0.477254
H      -1.575035       0.073342       1.523186
N       2.238623      -0.706515      -0.107689
H       2.036287      -1.029095      -1.049008
H       3.241198      -0.657749       0.037803
O      -2.528854      -0.240759      -0.333964
H      -2.930472       0.632486      -0.211364
}

set{
   basis 6-311++G(d,p)
   freeze_core True
   opt_type ts
   reference uks
}


set_num_threads(32)
optimize('m06-2x')

