!UKS B3LYP SV(P) TightSCF KDIIS SOSCF OPT

*xyz 0 1
  C       0.320766     -0.393821      0.096665
  O      -1.023644     -0.389487      0.004278
  O       0.991057      0.582184     -0.044133
  H       0.734769     -1.410346      0.319085
  H      -1.363305     -1.290451      0.153553
*
