molecule{
0 1
    C           -0.219993264371    -1.187271518631     0.109434818000
    O           -1.027167200777    -0.942524939525    -0.749553468223
    H            0.156461448716    -0.511696989311     2.079702362262
    H           -1.557735802534    -0.928735135233     1.759214875898
    H            1.010850663307     2.492411731940    -1.585906267880
    C            1.196871045378     1.553194932012    -1.056620272238
    H            0.918060106051     0.716345306706    -1.705236936311
    H            2.260277788086     1.490112308567    -0.828780344705
    O            0.505121246394     1.502764129763     0.180832573662
    H           -0.437346124407     1.489841204064    -0.007656322856
    C           -0.520550037497    -1.206856721791     1.577547065874
    H           -0.327079450169    -2.207475178361     1.974091164677
    H            0.828343240836    -1.419356915356    -0.165022942350 
}

set{
   basis 6-311++G(d,p)
   freeze_core True
   cubeprop_tasks ['ESP']
}


set_num_threads(32)
e, wfn = energy('m06-2x', return_wfn=True)
cubeprop(wfn)
