!rhf sto-3g 


*xyz 0 1
C    0.204275153963   -0.245063860290    0.060504561888
O   -1.167888457072   -0.249524298592   -0.031041868198
O    1.068976799538    0.592005838336   -0.040899066284
H    0.499372559248   -1.302117044795    0.281735378852
H   -1.361842038345   -1.215380122644    0.139602004658
*


