!rhf sto-3g 


*xyz 0 1
C    0.148127215378   -0.168097857587    0.042094007601
O   -1.158847066860   -0.256619949803   -0.029076351629
O    1.081382891832    0.561894276052   -0.034339035266
H    0.398423307384   -1.517387939592    0.315767584740
H   -0.932736012235   -1.326024757729    0.189474487580
*


