molecule{
0 1
  C   0.21272688582111      0.36897449070993     -0.05593053342560
  O   -1.05071221119074      0.25670735711839     -0.11952560400400
  O   1.08795248414136      1.10396924856408     -0.13698280940979
  H   0.44650950316546     -0.95918578579766      0.21261454282177
  H   -0.69647666193719     -0.77046531059475      0.09982440401762 
}

set{
   basis def2-svp
   freeze_core True
   opt_type ts
}


set_num_threads(32)
optimize('b3lyp')
