molecule{
0 1
C       -0.9490888051      0.6023292505      0.0000000000                 
O       -2.1457191144      0.5725768230      0.0000000000                 
O        0.0143838518      1.3126313941     -0.0000000000                 
H       -0.5930101405     -1.2414622622      0.4416875479                 
H       -1.9059447797     -1.0210696318      0.2936549737                 
}

set{
   basis 3-21G
   freeze_core True
   opt_type ts
}


set_num_threads(1)
optimize('b3lyp')
