!rhf sto-3g 


*xyz 0 1
C    0.173919421521   -0.200875259443    0.050062070626
O   -1.165056908824   -0.257585769026   -0.029313014542
O    1.078769207855    0.573546024069   -0.036730314612
H    0.444762493275   -1.361601346659    0.289291900700
H   -1.146142818271   -1.261129886612    0.162783160938
*


