!rhf sto-3g 


*xyz 0 1
C    0.042730805854   -0.024686567174    0.007674780486
O   -1.126547910956   -0.236026859384   -0.030793803135
O    1.093232999979    0.518547222315   -0.025278939247
H    0.378377406268   -2.149442480495    0.434551133996
H   -0.358433977842   -2.040421973082    0.363981682161
*


