molecule{
0 1
    C            0.062772238970    -0.070776081696    -1.618773030989
    O           -0.876379547331     0.055668626078    -2.336948718852
    BR           1.584528657393     0.409483698789     0.748323257299
    BR          -1.591877593364     0.720897423448     0.591199089508
    H            1.581538256584     3.690805104685    -2.711477342675
    C            1.525986882246     2.656009282377    -2.363280327461
    H            1.414091605424     1.991370974188    -3.227814533734
    H            2.455348481127     2.411571144940    -1.849019217374
    O            0.480719812779     2.471805377644    -1.423861109123
    H           -0.361782161539     2.675496451898    -1.840540944376
    C           -0.050931086965    -0.209575774543    -0.083178637298
    BR          -0.225364447898    -2.139202097220     0.189057716089
    H            1.102315574735    -0.172311254061    -1.976714650489
}

basis {
  assign 6-311ppgss
  assign Br def2-tzvpp
}

set{
  freeze_core True
  intrafrag_step_limit     0.05
  intrafrag_step_limit_min 0.05
  intrafrag_step_limit_max 0.05
  geom_maxiter 150
}


set_num_threads(32)
optimize('m06-2x')
