molecule{
0 1
 C    0.024925462944    0.023733704855   -1.607230184222
 O   -0.938858899405    0.065746964671   -2.304391235313
BR    1.556013283696    0.453760824269    0.822811660472
BR   -1.607521894642    0.635879830442    0.701173800982
 H    1.492221463747    3.737281161973   -2.567268661796
 C    1.432489018953    2.684961477901   -2.279055748725
 H    1.388158022487    2.067973271711   -3.183596993582
 H    2.328570708862    2.425769852581   -1.715468260598
 O    0.330810037704    2.439476466859   -1.421734586888
 H   -0.490675183152    2.629507340285   -1.888089930381
 C   -0.046346216429   -0.170182716162   -0.076081453565
BR   -0.113640734107   -2.121818566043   -0.021524493905
 H    1.062671024319   -0.020574785636   -1.981123205501 
}

basis {
  assign 6-311ppgss
  assign Br def2-tzvpp
}

set{
   freeze_core True
}


set_num_threads(32)
optimize('m06-2x')
