!rhf sto-3g 


*xyz 0 1
C    0.140658375976   -0.159293676933    0.039916978244
O   -1.157038083010   -0.254744858717   -0.029310612395
O    1.081658374439    0.558768157083   -0.033726001242
H    0.381698948524   -1.567967305653    0.324253590780
H   -0.860163457464   -1.360420542054    0.200898590658
*


