!rhf sto-3g 


*xyz 0 1
C    0.009489166981    0.066065686986   -0.011888455990
O   -1.131112993740   -0.246998799825   -0.028989980769
O    1.110950904927    0.492747698279   -0.019155470950
H    0.468950048726   -2.409345891332    0.490028592041
H   -0.261948953593   -2.277500279525    0.415628473819
*


